param M := 5;  # Number of rows
param N := 5;  # Number of columns
param PIRELLONE :  1 2 3 4 5 :=
           1   1 0 1 1 0
           2   0 1 0 0 1
           3   0 1 0 0 1
           4   0 1 0 0 1
           5   0 1 0 0 1;
end;
